     Program PWSCF v.6.7MaX starts on 22Jul2021 at 16:44:13

     Waiting for input...
     Reading input from standard input

     Current dimensions of program PWSCF are:
     Max number of different atomic species (ntypx) = 10
     Max number of k-points (npk) =  40000
     Max angular momentum in pseudopotentials (lmaxx) =  3
     Message from routine read_pp_mesh:
     mesh size missing, using the one in header
     Message from routine read_pp_mesh:
     mesh size missing, using the one in header
     Message from routine read_pp_mesh:
     mesh size missing, using the one in header

     Subspace diagonalization in iterative solution of the eigenvalue problem:
     a serial algorithm will be used

     bravais-lattice index     =            1
     lattice parameter (alat)  =       7.2613  a.u.
     unit-cell volume          =     382.8628 (a.u.)^3
     number of atoms/cell      =            5
     number of atomic types    =            3
     number of electrons       =        41.00
     number of Kohn-Sham states=           55
     kinetic-energy cutoff     =      81.0000  Ry
     charge density cutoff     =     324.0000  Ry
     scf convergence threshold =      1.0E-08
     mixing beta               =       0.3000
     number of iterations used =            8  plain     mixing
     Exchange-correlation= PBE
                           (   1   4   3   4   0   0   0)

     celldm(1)=   7.261300  celldm(2)=   0.000000  celldm(3)=   0.000000
     celldm(4)=   0.000000  celldm(5)=   0.000000  celldm(6)=   0.000000

     crystal axes: (cart. coord. in units of alat)
               a(1) = (   1.000000   0.000000   0.000000 )
               a(2) = (   0.000000   1.000000   0.000000 )
               a(3) = (   0.000000   0.000000   1.000000 )

     reciprocal axes: (cart. coord. in units 2 pi/alat)
               b(1) = (  1.000000  0.000000  0.000000 )
               b(2) = (  0.000000  1.000000  0.000000 )
               b(3) = (  0.000000  0.000000  1.000000 )

     PseudoPot. # 1 for Sr read from file:
     ./PP/Sr_ONCV_PBE-1.0.upf
     MD5 check sum: 78fc4efdafbc3dc123c8ae2ba82404d1
     Pseudo is Norm-conserving, Zval = 10.0
     Generated using ONCVPSP code by D. R. Hamann
     Using radial grid of  602 points,  6 beta functions with:
                l(1) =   0
                l(2) =   0
                l(3) =   1
                l(4) =   1
                l(5) =   2
                l(6) =   2

     PseudoPot. # 2 for V  read from file:
     ./PP/V_ONCV_PBE-1.0.upf
     MD5 check sum: c2b49fb55f89a022ba3f2a4f0f778651
     Pseudo is Norm-conserving, Zval = 13.0
     Generated using ONCVPSP code by D. R. Hamann
     Using radial grid of  602 points,  6 beta functions with:
                l(1) =   0
                l(2) =   0
                l(3) =   1
                l(4) =   1
                l(5) =   2
                l(6) =   2

     PseudoPot. # 3 for O  read from file:
     ./PP/O_ONCV_PBE-1.0.upf
     MD5 check sum: 80a85145cbbb6f60b39549a50e3ff56c
     Pseudo is Norm-conserving, Zval =  6.0
     Generated using ONCVPSP code by D. R. Hamann
     Using radial grid of  602 points,  4 beta functions with:
                l(1) =   0
                l(2) =   0
                l(3) =   1
                l(4) =   1

     atomic species   valence    mass     pseudopotential
        Sr            10.00    87.62000     Sr( 1.00)
        V             13.00    50.94200     V ( 1.00)
        O              6.00    15.99900     O ( 1.00)

     48 Sym. Ops., with inversion, found

   Cartesian axes

     site n.     atom                  positions (alat units)
         1           Sr  tau(   1) = (   0.0000000   0.0000000   0.0000000  )
         2           V   tau(   2) = (   0.5000000   0.5000000   0.5000000  )
         3           O   tau(   3) = (   0.5000000   0.0000000   0.5000000  )
         4           O   tau(   4) = (   0.5000000   0.5000000   0.0000000  )
         5           O   tau(   5) = (   0.0000000   0.5000000   0.5000000  )

     number of k points=    20  Gaussian smearing, width (Ry)=  0.0200
                       cart. coord. in units 2pi/alat
        k(    1) = (   0.0000000   0.0000000   0.0000000), wk =   0.0092593
        k(    2) = (   0.0000000   0.0000000   0.1666667), wk =   0.0555556
        k(    3) = (   0.0000000   0.0000000   0.3333333), wk =   0.0555556
        k(    4) = (   0.0000000   0.0000000  -0.5000000), wk =   0.0277778
        k(    5) = (   0.0000000   0.1666667   0.1666667), wk =   0.1111111
        k(    6) = (   0.0000000   0.1666667   0.3333333), wk =   0.2222222
        k(    7) = (   0.0000000   0.1666667  -0.5000000), wk =   0.1111111
        k(    8) = (   0.0000000   0.3333333   0.3333333), wk =   0.1111111
        k(    9) = (   0.0000000   0.3333333  -0.5000000), wk =   0.1111111
        k(   10) = (   0.0000000  -0.5000000  -0.5000000), wk =   0.0277778
        k(   11) = (   0.1666667   0.1666667   0.1666667), wk =   0.0740741
        k(   12) = (   0.1666667   0.1666667   0.3333333), wk =   0.2222222
        k(   13) = (   0.1666667   0.1666667  -0.5000000), wk =   0.1111111
        k(   14) = (   0.1666667   0.3333333   0.3333333), wk =   0.2222222
        k(   15) = (   0.1666667   0.3333333  -0.5000000), wk =   0.2222222
        k(   16) = (   0.1666667  -0.5000000  -0.5000000), wk =   0.0555556
        k(   17) = (   0.3333333   0.3333333   0.3333333), wk =   0.0740741
        k(   18) = (   0.3333333   0.3333333  -0.5000000), wk =   0.1111111
        k(   19) = (   0.3333333  -0.5000000  -0.5000000), wk =   0.0555556
        k(   20) = (  -0.5000000  -0.5000000  -0.5000000), wk =   0.0092593

     Initial potential from superposition of free atoms

     starting charge   40.63139, renormalised to   41.00000
     Starting wfcs are random

     Self-consistent Calculation

     iteration #  1     ecut=    81.00 Ry     beta= 0.30
     CG style diagonalization
     c_bands:  2 eigenvalues not converged
     c_bands:  1 eigenvalues not converged
     c_bands:  1 eigenvalues not converged
     ethr =  1.00E-02,  avg # of iterations = 10.3

     total energy              =    -300.48510164 Ry
     estimated scf accuracy    <       1.66314127 Ry

     iteration #  2     ecut=    81.00 Ry     beta= 0.30
     CG style diagonalization
     ethr =  4.06E-03,  avg # of iterations =  3.0

[...]

     iteration #  4     ecut=    81.00 Ry     beta= 0.30
     CG style diagonalization
     c_bands:  1 eigenvalues not converged
     c_bands:  1 eigenvalues not converged
     ethr =  4.91E-05,  avg # of iterations =  3.4

[...]

     total energy              =    -300.93542408 Ry
     estimated scf accuracy    <       0.00000012 Ry

     iteration # 11     ecut=    81.00 Ry     beta= 0.30
     CG style diagonalization
     ethr =  3.01E-10,  avg # of iterations =  3.0

     End of self-consistent calculation

          k = 0.0000 0.0000 0.0000 (  4729 PWs)   bands (ev):

   -53.3280 -27.1638 -27.1638 -27.1638 -21.9967  -7.2037  -6.0231  -6.0231
    -3.9947  -3.9947  -3.9947   7.3251   7.3251   7.3251   9.2670   9.2670
     9.2670  10.1031  10.1031  10.1031  11.6166  11.6166  11.6166  13.8753
    13.8753  16.1281  16.1281  17.2665  19.1024  19.1024  19.1024  25.8617
    28.0228  28.0228  28.0228  31.9252  31.9252  31.9252  32.2616  32.2616
    32.3632  33.7717  33.7717  33.7717  37.3002  37.3002  37.3002  41.1760
    41.1760  41.1760  41.7764  41.7764  41.7764  44.9933  44.9983

[...]

          k = 0.3333-0.5000-0.5000 (  4716 PWs)   bands (ev):

[...]

          k =-0.5000-0.5000-0.5000 (  4680 PWs)   bands (ev):

   -53.3259 -27.1945 -27.1945 -27.1945 -21.9189  -5.8275  -5.8275  -5.8275
    -4.3076  -4.3076  -4.3076   5.3110   6.0200   6.0200   6.6208   6.6208
     6.6208  10.4863  10.4863  10.4863  14.1152  14.1152  14.1152  17.7803
    17.7803  17.7803  18.0497  18.0497  20.6202  20.6202  21.3461  25.4156
    25.4156  25.4156  27.5210  28.2955  28.2955  28.2955  30.9305  30.9305
    30.9305  33.6578  33.6578  33.6578  39.4140  39.4140  39.4140  39.4894
    39.4894  39.4894  40.5321  43.2347  43.2347  43.3028  43.3029

     the Fermi energy is    12.5024 ev

!    total energy              =    -300.93542410 Ry
     estimated scf accuracy    <          2.3E-09 Ry
     smearing contrib. (-TS)   =      -0.00522998 Ry
     internal energy E=F+TS    =    -300.93019413 Ry

     The total energy is F=E-TS. E is the sum of the following terms:
     one-electron contribution =     -95.97637052 Ry
     hartree contribution      =      70.43985472 Ry
     xc contribution           =     -46.97821239 Ry
     ewald contribution        =    -228.41546594 Ry

     convergence has been achieved in  11 iterations

     Forces acting on atoms (cartesian axes, Ry/au):

     atom    1 type  1   force =     0.00000000   -0.00000000    0.00000000
     atom    2 type  2   force =     0.00000000   -0.00000000    0.00000000
     atom    3 type  3   force =     0.00000000    0.00000000    0.00000000
     atom    4 type  3   force =     0.00000000    0.00000000    0.00000000
     atom    5 type  3   force =     0.00000000    0.00000000    0.00000000

     Total force =     0.000000     Total SCF correction =     0.000000

     Computing stress (Cartesian axis) and pressure

          total   stress  (Ry/bohr**3)                   (kbar)     P=       21.41
   0.00014556   0.00000000   0.00000000           21.41        0.00        0.00
   0.00000000   0.00014556   0.00000000            0.00       21.41        0.00
   0.00000000   0.00000000   0.00014556            0.00        0.00       21.41

     Writing output data file ./tmp/scf/SrVO3.save/

     General routines

     Parallel routines

   This run was terminated on:  16:46:34  22Jul2021

   JOB DONE.